16372.03,42.54,48.32
15889.89,43.83,49.79
17642.61,39.47,44.84
16669.01,41.78,47.46
16121.33,43.2,49.07
16405.92,42.45,48.22
16904.71,41.2,46.8
20247.42,34.4,39.07
17104.69,40.71,46.25
17294.13,40.27,45.75
17236.56,40.4,45.9
16932.03,41.13,46.72
16407.86,42.44,48.22
17992.59,38.71,43.97
18627.49,37.39,42.47
16971.2,41.03,46.62
17998.7,38.69,43.95
17437.33,39.94,45.37
17041.15,40.87,46.42
18128.44,38.42,43.64
